webassembly/ejemplos_dzn/folder10_json_62.dzn
TERM = { '.', 's(2)', 's(4)', 'local_0', 'local_1', 's(1)', 's(0)', 's(3)', 'in_0'};
null = '.';
s = 10;
n = 9;
ndeps = 1;
max_registers_sz = 5;
NR = 2;
registers = [|'local_0', 'in_0', |'local_1', 'in_0'|];
dependencies = [|'call[function_index(0)]_0', 'i32.load16_s_5'|];
GET_ENUM = { GET1, GET2, GET3, GET4, GET5, GET6, GET7};
SET_ENUM = { SET1, SET2, SET3, SET4, SET5, SET6, SET7};
TEE_ENUM = { TEE1, TEE2, TEE3, TEE4, TEE5, TEE6, TEE7};
N = 3;
OP = { 'i32.const_0', 'call[function_index(0)]_0', 'i32.load16_s_5' };
in_ops = [0, 0, 1 ];
out_ops = [1, 3, 1 ];
in1 = ['.', '.', 'in_0' ];
in2 = ['.', '.', '.' ];
in3 = ['.', '.', '.' ];
out1 = ['s(4)', 's(2)', 's(3)' ];
out2 = ['.', 's(1)', '.' ];
out3 = ['.', 's(0)', '.' ];
comm = [false, false, false ];
gas = [1, 1, 1 ];
sz = [1, 1, 1 ];
stor = [false, true, false ];
lb = [ 1, 1, 1 ];
ub = [ 10, 10, 10 ];
startstack = [ 'in_0', null, null, null, null, null, null, null, null ];
endstack = [ 's(4)', 'in_0', 'in_0', 's(3)', null, null, null, null, null ];
