webassembly/ejemplos_results/folder10_json_62.txt
value = 9;
fgas = [1, 1, 1, 1, 1, 1, 1, 2, 1, 0];
fsize = [1, 1, 1, 1, 1, 1, 1, 1, 1, 1];
states = 
[|   in_0,    '.',    '.',    '.',    '.',    '.',    '.', '.', '.'
 | 's(3)', 's(3)',    '.',    '.',    '.',    '.',    '.', '.', '.'
 | 's(2)', 's(1)', 's(0)',   in_0, 's(3)',    '.',    '.', '.', '.'
 | 's(4)',   in_0, 's(1)', 's(0)',   in_0, 's(3)',    '.', '.', '.'
 | 's(4)',   in_0,   in_0, 's(1)', 's(0)',   in_0, 's(3)', '.', '.'
 |   in_0,   in_0, 's(1)', 's(0)',   in_0, 's(3)',    '.', '.', '.'
 |   in_0, 's(1)', 's(0)',   in_0, 's(3)',    '.',    '.', '.', '.'
 | 's(1)', 's(0)',   in_0, 's(3)',    '.',    '.',    '.', '.', '.'
 | 's(0)',   in_0, 's(3)',    '.',    '.',    '.',    '.', '.', '.'
 | 's(4)',   in_0,   in_0, 's(3)',    '.',    '.',    '.', '.', '.'
 | 's(4)',   in_0,   in_0, 's(3)',    '.',    '.',    '.', '.', '.'
 |];
register_states = 
[| local_0, local_1, '.', '.', '.', '.', '.'
 | local_0, local_1, '.', '.', '.', '.', '.'
 | local_0, local_1, '.', '.', '.', '.', '.'
 | local_0, local_1, '.', '.', '.', '.', '.'
 | local_0, local_1, '.', '.', '.', '.', '.'
 | local_0,  's(4)', '.', '.', '.', '.', '.'
 | local_0,    in_0, '.', '.', '.', '.', '.'
 |    in_0,    in_0, '.', '.', '.', '.', '.'
 |    in_0,    in_0, '.', '.', '.', '.', '.'
 |    in_0,    in_0, '.', '.', '.', '.', '.'
 |    in_0,    in_0, '.', '.', '.', '.', '.'
 |];
program = [O('i32.load16_s_5'), O('call[function_index(0)]_0'), O('i32.const_0'), O('i32.const_0'), S(SET2), S(SET2), S(SET1), POP, O('i32.const_0'), NOP];
% time elapsed: 0.16 s
----------
==========
% time elapsed: 0.16 s
% [value > 8]
